%mem=10GB
%nprocs=8
# sp b3lyp/6-311g** Force nosymm scf=(qc)

Title Card Required

1 2
 H                  0.00    0.00    0.00
 H             -1.6     0.00    0.00
 Ne            1.55     0.00    0.00

