%mem=10GB
%nprocs=8
# sp b3lyp/6-311g** Force nosymm scf=(qc)

Title Card Required

0 2
 H                  0.00    0.00    0.00
 H             -3.35     0.00    0.00
 F            3.55     0.00    0.00

